qe/outputs/qe/cbrdelay_obs_newl/T=6,eliminate=[I_0,I_1,I_2,I_3,I_4,I_5,L_1,L_2,L_3,L_4,L_5,C,B,lhs=Q_5].smt2
; benchmark generated from python API
(set-info :status unknown)
(declare-fun S_1 () Real)
(declare-fun S_4 () Real)
(declare-fun S_3 () Real)
(declare-fun S_2 () Real)
(declare-fun S_5 () Real)
(declare-fun A_5 () Real)
(declare-fun Q_5 () Real)
(declare-fun L_0 () Real)
(declare-fun A_1 () Real)
(declare-fun S_0 () Real)
(declare-fun A_0 () Real)
(declare-fun A_4 () Real)
(declare-fun A_2 () Real)
(declare-fun A_3 () Real)
(assert
 (let (($x39 (>= L_0 0.0)))
 (let (($x73264 (not (<= (- 5.0) (+ S_5 (* (- 1.0) Q_5) (* (- 1.0) S_3))))))
 (let ((?x2918 (* (/ 1.0 3.0) S_1)))
 (let ((?x450 (* (- 1.0) A_1)))
 (let ((?x466 (* (- 1.0) Q_5)))
 (let ((?x2893 (* (- (/ 1.0 3.0)) S_5)))
 (let (($x72199 (not (<= 0.0 (+ ?x2893 ?x466 ?x450 A_5 ?x2918)))))
 (let (($x69751 (not (<= 0.0 (+ S_5 ?x466 (* (- 1.0) A_4) A_5 (* (- 1.0) S_3))))))
 (let (($x69234 (not (<= 0.0 (+ ?x466 (* (- 1.0) A_2) A_5)))))
 (let (($x22226 (not (<= (+ (* (- 1.0) S_5) Q_5 (* (- 1.0) A_5) A_3 S_4) 0.0))))
 (let ((?x1470 (* (- 1.0) S_0)))
 (let ((?x1712 (* (- 2.0) S_3)))
 (let ((?x5703 (* (- 3.0) Q_5)))
 (let ((?x2379 (* 3.0 S_5)))
 (let (($x73185 (not (<= 0.0 (+ ?x2379 ?x5703 ?x1712 ?x1470)))))
 (let ((?x430 (* (- 1.0) S_3)))
 (let ((?x2311 (* (- 2.0) Q_5)))
 (let ((?x1399 (* (- 1.0) A_0)))
 (let ((?x2310 (* 2.0 S_5)))
 (let (($x73160 (not (<= 0.0 (+ ?x2310 ?x1399 L_0 ?x2311 ?x430)))))
 (let (($x73181 (<= 0.0 (+ S_5 ?x5703 (* 3.0 A_5) (* (- 3.0) A_3) (* (- 1.0) S_2)))))
 (let (($x75589 (not $x73181)))
 (let ((?x423 (* (- 1.0) S_2)))
 (let ((?x2301 (* (/ 3.0 2.0) A_5)))
 (let ((?x2300 (* (- (/ 3.0 2.0)) A_4)))
 (let ((?x2299 (* (- (/ 3.0 2.0)) Q_5)))
 (let (($x74746 (not (<= 0.0 (+ S_5 ?x2299 ?x2300 ?x2301 ?x423)))))
 (let (($x72963 (not (<= 0.0 (+ S_5 ?x466 ?x423)))))
 (let ((?x6797 (* 4.0 A_5)))
 (let ((?x11603 (* (- 4.0) A_1)))
 (let ((?x6569 (* (- 4.0) Q_5)))
 (let ((?x444 (* (- 1.0) S_5)))
 (let (($x74594 (not (<= 0.0 (+ ?x444 ?x6569 ?x11603 ?x6797 S_0)))))
 (let (($x74029 (not (<= 0.0 (+ ?x2310 ?x6569 ?x6797 (* (- 4.0) A_3) ?x1712)))))
 (let (($x72844 (not (<= (- 5.0) (+ (* (/ 1.0 2.0) S_5) (* (- (/ 1.0 2.0)) Q_5) (* (- (/ 1.0 2.0)) S_4))))))
 (let (($x72545 (not (<= (- 5.0) (+ S_5 ?x466 (* (- 1.0) A_4) A_5 (* (- 1.0) S_4))))))
 (let ((?x437 (* (- 1.0) S_4)))
 (let ((?x2313 (* 2.0 A_5)))
 (let ((?x2312 (* (- 2.0) A_4)))
 (let (($x72841 (not (<= 0.0 (+ ?x2310 ?x2311 ?x2312 ?x2313 ?x437 ?x423)))))
 (let (($x71966 (not (<= 0.0 (+ (* (- 2.0) S_5) ?x6569 ?x11603 ?x6797 (* 2.0 S_2))))))
 (let ((?x791 (* (- 3.0) S_4)))
 (let ((?x2659 (* 4.0 S_5)))
 (let (($x72861 (not (<= 0.0 (+ ?x2659 ?x6569 (* (- 4.0) A_4) ?x6797 ?x791 ?x1470)))))
 (let (($x72834 (not (<= 0.0 (+ ?x2310 ?x2311 ?x437 ?x1470)))))
 (let (($x73156 (not (<= 0.0 (+ ?x2310 ?x2311 ?x430 (* (- 1.0) S_1))))))
 (let (($x77967 (not (<= 0.0 (+ S_5 ?x2311 ?x2312 ?x2313 (* (- 1.0) S_1))))))
 (let (($x74165 (not (<= 0.0 (+ S_5 (* (- (/ 4.0 3.0)) Q_5) (* (- 1.0) S_1))))))
 (let ((?x4893 (* (- 2.0) S_1)))
 (let ((?x19744 (* (- 8.0) A_3)))
 (let ((?x26134 (* 8.0 A_5)))
 (let ((?x20334 (* (- 8.0) Q_5)))
 (let (($x74023 (not (<= 0.0 (+ ?x2310 ?x20334 ?x26134 ?x19744 ?x4893)))))
 (let ((?x417 (* (- 1.0) S_1)))
 (let ((?x1703 (* (- 2.0) S_4)))
 (let ((?x5704 (* 3.0 A_5)))
 (let ((?x5707 (* (- 3.0) A_4)))
 (let (($x74070 (not (<= 0.0 (+ ?x2379 ?x5703 ?x5707 ?x5704 ?x1703 ?x417)))))
 (let (($x73095 (not (<= 0.0 (+ (* (/ 3.0 2.0) S_5) ?x2299 (* (- (/ 1.0 2.0)) S_4) ?x417)))))
 (let (($x67926 (not (<= 0.0 (+ S_5 ?x466 ?x450 A_5 ?x1703 S_1)))))
 (let ((?x4840 (* (/ 1.0 2.0) S_1)))
 (let ((?x452 (* (- 1.0) A_2)))
 (let (($x67053 (not (<= 0.0 (+ S_5 ?x466 ?x452 A_5 (* (- (/ 3.0 2.0)) S_4) ?x4840)))))
 (let (($x72632 (<= 0.0 (+ ?x2379 ?x5703 (* (- 3.0) A_2) ?x5704 (* (- 4.0) S_4) S_0))))
 (let (($x72633 (not $x72632)))
 (let (($x72214 (<= 0.0 (+ ?x2659 ?x6569 ?x11603 ?x6797 (* (- (/ 20.0 3.0)) S_4) (* (/ 8.0 3.0) S_0)))))
 (let (($x72215 (not $x72214)))
 (let (($x72823 (not (<= 0.0 (+ (* (/ 3.0 2.0) S_5) ?x1399 L_0 ?x2299 (* (- (/ 1.0 2.0)) S_4))))))
 (let (($x72599 (not (<= 0.0 (+ ?x2379 ?x1399 L_0 ?x5703 ?x5707 ?x5704 ?x1703)))))
 (let (($x73272 (not (<= 0.0 (+ ?x2310 ?x2311 S_4 (* (- 3.0) S_3))))))
 (let (($x74012 (<= 0.0 (+ ?x2310 ?x2311 ?x2313 (* (- 2.0) A_3) (* (- 3.0) S_3) S_0))))
 (let (($x74013 (not $x74012)))
 (let (($x71968 (<= 0.0 (+ ?x2659 ?x6569 ?x11603 ?x6797 (* (- 10.0) S_3) (* 6.0 S_0)))))
 (let (($x71969 (not $x71968)))
 (let ((?x5438 (* (- 3.0) A_2)))
 (let (($x71947 (<= 0.0 (+ ?x2379 ?x5703 ?x5438 ?x5704 (* (- 6.0) S_3) (* 3.0 S_0)))))
 (let (($x71948 (not $x71947)))
 (let (($x72417 (<= 0.0 (+ ?x2379 ?x5703 ?x5438 ?x5704 (* (- 6.0) S_4) (* 3.0 S_2)))))
 (let (($x72418 (not $x72417)))
 (let (($x72211 (<= 0.0 (+ ?x2659 ?x6569 ?x11603 ?x6797 (* (- 12.0) S_4) (* 8.0 S_2)))))
 (let (($x72212 (not $x72211)))
 (let (($x72146 (<= 0.0 (+ (* (- 2.0) S_5) ?x2311 (* (- 2.0) A_1) ?x2313 (* 2.0 S_3)))))
 (let (($x72147 (not $x72146)))
 (let (($x73316 (not (<= 0.0 (+ ?x2659 ?x5703 (* (- 4.0) S_3))))))
 (let (($x75360 (<= 0.0 (+ S_5 (* (- 5.0) Q_5) (* 5.0 A_5) (* (- 5.0) A_3) ?x1470))))
 (let (($x75365 (not $x75360)))
 (let (($x74317 (<= 0.0 (+ S_5 (* (- (/ 5.0 2.0)) Q_5) (* (- (/ 5.0 2.0)) A_4) (* (/ 5.0 2.0) A_5) ?x1470))))
 (let (($x74318 (not $x74317)))
 (let (($x74185 (not (<= 0.0 (+ S_5 (* (- (/ 5.0 3.0)) Q_5) ?x1470)))))
 (let (($x74865 (not (<= 0.0 (+ S_5 ?x1399 L_0 ?x2311 ?x2312 ?x2313)))))
 (let (($x73568 (not (<= 0.0 (+ S_5 ?x1399 L_0 (* (- (/ 4.0 3.0)) Q_5))))))
 (let (($x73211 (<= 0.0 (+ ?x2310 (* (- 2.0) A_0) (* 2.0 L_0) ?x20334 ?x26134 ?x19744))))
 (let (($x73212 (not $x73211)))
 (let (($x74755 (not (<= (- 5.0) (+ (* (- (/ 1.0 2.0)) Q_5) (* (- (/ 1.0 2.0)) A_4) (* (/ 1.0 2.0) A_5))))))
 (let (($x73442 (not (<= (- 10.0) (+ ?x2311 ?x2313 (* (- 2.0) A_3))))))
 (let (($x31571 (not (<= Q_5 15.0))))
 (let (($x73880 (not (<= 0.0 (+ S_5 ?x466 A_5 (* (- 1.0) A_3) ?x1712 S_1)))))
 (let (($x70952 (<= 0.0 (+ S_5 ?x466 ?x450 A_5 (* (- 4.0) S_3) (* 3.0 S_1)))))
 (let (($x70730 (not $x70952)))
 (let (($x64949 (<= 0.0 (+ S_5 ?x466 ?x452 A_5 (* (- 3.0) S_3) (* 2.0 S_1)))))
 (let (($x66788 (not $x64949)))
 (let ((?x4657 (* (/ 2.0 3.0) S_0)))
 (let ((?x4344 (* (/ 1.0 3.0) A_5)))
 (let ((?x3441 (* (- (/ 1.0 3.0)) Q_5)))
 (let ((?x2957 (* (/ 1.0 3.0) S_5)))
 (let (($x74785 (<= 0.0 (+ S_5 ?x466 (* (- 1.0) A_4) A_5 (* (- 2.0) S_2) S_0))))
 (let (($x72077 (<= 0.0 (+ ?x2659 ?x6569 ?x11603 ?x6797 (* (- 20.0) S_2) (* 16.0 S_0)))))
 (let (($x72078 (not $x72077)))
 (let (($x72074 (<= 0.0 (+ ?x2379 ?x5703 ?x5438 ?x5704 (* (- 12.0) S_2) (* 9.0 S_0)))))
 (let (($x72714 (or (not $x72074) $x72078 $x72963 (not $x74785) (not (<= 0.0 (+ ?x2957 ?x3441 ?x4344 (* (- (/ 1.0 3.0)) A_3) ?x423 ?x4657))))))
 (let (($x72848 (not (<= 0.0 (+ ?x2310 ?x466 ?x1703)))))
 (let (($x72696 (not (<= 0.0 (+ ?x2379 ?x2311 ?x2312 ?x2313 ?x791)))))
 (let (($x1477 (<= Q_5 0.0)))
 (let (($x75701 (or $x1477 (<= (+ L_0 Q_5 (* (- 1.0) A_5) (* 2.0 S_3) ?x423) 0.0))))
 (let ((?x1688 (* 3.0 S_3)))
 (let ((?x2319 (* (- 2.0) A_5)))
 (let ((?x2317 (* 2.0 Q_5)))
 (let ((?x2896 (* 2.0 L_0)))
 (let (($x2898 (<= (+ ?x2896 ?x2317 ?x2319 ?x1688 ?x1470) 0.0)))
 (let ((?x2860 (* (/ 5.0 2.0) S_3)))
 (let ((?x2306 (* (- (/ 3.0 2.0)) A_5)))
 (let ((?x2304 (* (/ 3.0 2.0) Q_5)))
 (let ((?x4226 (* (/ 3.0 2.0) S_1)))
 (let ((?x2292 (* (- (/ 1.0 2.0)) A_5)))
 (let ((?x2248 (* (/ 1.0 2.0) Q_5)))
 (let ((?x2889 (* (/ 1.0 2.0) L_0)))
 (let ((?x7003 (* (- (/ 1.0 4.0)) A_5)))
 (let ((?x7002 (* (/ 1.0 4.0) Q_5)))
 (let (($x140532 (or $x1477 (<= (+ ?x1399 (* (/ 5.0 4.0) L_0) ?x7002 ?x7003 (* (/ 5.0 4.0) S_1)) 0.0))))
 (let (($x73410 (or $x1477 (<= (+ (* (/ 1.0 4.0) L_0) ?x7002 ?x7003 (* (/ 1.0 4.0) S_1)) (- 5.0)))))
 (let ((?x6798 (* 5.0 S_4)))
 (let ((?x6469 (* (- 4.0) A_5)))
 (let ((?x6789 (* 4.0 Q_5)))
 (let (($x72625 (<= 0.0 (+ (* (/ 4.0 5.0) S_5) L_0 (* (- 1.0) A_4) (* (/ 1.0 5.0) S_0) Q_5))))
 (let (($x82159 (or $x2898 (<= 0.0 (+ (* (/ 1.0 2.0) S_5) ?x2299 ?x2300 ?x2301 (* (- (/ 1.0 2.0)) S_4))))))
 (let ((?x2287 (* (- (/ 1.0 2.0)) S_4)))
 (let ((?x1762 (* (/ 1.0 2.0) A_5)))
 (let ((?x2275 (* (- (/ 1.0 2.0)) A_4)))
 (let ((?x2246 (* (- (/ 1.0 2.0)) Q_5)))
 (let ((?x1993 (* (/ 1.0 2.0) S_5)))
 (let (($x86572 (or $x1477 (<= (+ L_0 Q_5 (* (- 1.0) A_5) (* 2.0 S_2) ?x1470) 0.0))))
 (let ((?x3185 (* (/ 5.0 3.0) S_2)))
 (let ((?x4328 (* (- (/ 2.0 3.0)) A_5)))
 (let ((?x4438 (* (/ 2.0 3.0) Q_5)))
 (let ((?x4229 (* (- (/ 1.0 3.0)) A_5)))
 (let ((?x4271 (* (/ 1.0 3.0) Q_5)))
 (let (($x92868 (or $x1477 (<= (+ (* (/ 1.0 3.0) L_0) ?x4271 ?x4229 (* (/ 1.0 3.0) S_2)) (- 5.0)))))
 (let (($x1903 (not $x1477)))
 (let (($x71583 (or (= Q_5 0.0) $x1903)))
 (let ((?x1852 (* 4.0 S_4)))
 (let ((?x5802 (* (- 3.0) A_5)))
 (let ((?x5803 (* 3.0 Q_5)))
 (let ((?x5172 (* 6.0 S_4)))
 (let ((?x6820 (* (- 5.0) A_5)))
 (let ((?x6819 (* 5.0 Q_5)))
 (let ((?x6818 (* 5.0 L_0)))
 (let ((?x1328 (* (/ 1.0 5.0) S_0)))
 (let (($x616 (<= (+ (* (/ 1.0 5.0) L_0) (* (/ 1.0 5.0) Q_5) (* (- (/ 1.0 5.0)) A_5) ?x1328) (- 5.0))))
 (let (($x140 (>= S_5 S_4)))
 (let (($x128 (>= S_1 S_0)))
 (let (($x131 (>= S_2 S_1)))
 (let (($x134 (>= S_3 S_2)))
 (let (($x137 (>= S_4 S_3)))
 (let (($x143 (>= A_2 A_1)))
 (let (($x144 (>= A_3 A_2)))
 (let (($x145 (>= A_4 A_3)))
 (let (($x146 (>= A_5 A_4)))
 (and (<= (+ A_0 (* (- 1.0) L_0)) S_5) $x146 $x145 $x144 $x143 $x137 $x134 $x131 $x128 $x140 (<= (+ ?x444 ?x1399 L_0 (* 2.0 S_2)) 0.0) (<= (+ (* (- 3.0) S_5) (* 4.0 S_3) ?x417) 0.0) (<= (+ (* (- (/ 3.0 2.0)) S_5) (* (/ 5.0 2.0) S_2) ?x1470) 0.0) (<= (+ (* (- 3.0) S_5) ?x1399 L_0 (* 4.0 S_3)) 0.0) (<= (+ (* (- 4.0) S_5) (* 5.0 S_3) ?x1470) 0.0) (<= (+ (* (- (/ 2.0 3.0)) S_5) (* (/ 5.0 3.0) S_1) ?x1470) 0.0) (<= (+ ?x2893 ?x1399 L_0 (* (/ 4.0 3.0) S_1)) 0.0) (or $x616 $x1477) (<= (+ ?x791 (* 4.0 S_2) ?x1470) 0.0) (<= (+ ?x1399 L_0 ?x1703 (* 3.0 S_2)) 0.0) (<= (+ ?x1703 (* 3.0 S_2) ?x417) 0.0) (or $x1477 (<= (+ ?x2889 ?x2248 ?x2292 (* (/ 1.0 2.0) S_3)) (- 5.0))) (<= (+ ?x2957 ?x437 (* (/ 2.0 3.0) S_2)) 0.0) (or $x1477 (<= (+ ?x1399 (* (/ 5.0 3.0) L_0) ?x4438 ?x4328 ?x3185) 0.0)) (<= (+ ?x1399 L_0 ?x430 (* 2.0 S_1)) 0.0) (<= (+ S_5 (* (- 4.0) S_3) (* 3.0 S_1)) 0.0) (or $x1477 (<= (+ L_0 Q_5 (* (- 1.0) A_5) S_4) (- 5.0))) (or $x1477 (<= (+ ?x1399 ?x6818 ?x6789 ?x6469 ?x6798) 0.0)) (or $x1477 (<= (+ ?x6818 ?x6819 ?x6820 ?x5172 ?x1470) 0.0)) (or $x1477 (<= (+ (* 3.0 L_0) ?x5803 ?x5802 ?x1852 ?x423) 0.0)) $x71583 (<= (+ (* (/ 1.0 3.0) S_3) ?x423 ?x4657) 0.0) (<= (+ ?x444 (* 2.0 S_2) ?x417) 0.0) (<= (+ (* (/ 1.0 2.0) S_4) ?x430 (* (/ 1.0 2.0) S_0)) 0.0) (<= (+ (* (/ 2.0 5.0) S_5) ?x430 (* (/ 3.0 5.0) S_0)) 0.0) (<= (+ ?x1712 (* 3.0 S_1) ?x1470) 0.0) (<= (+ ?x1399 L_0 ?x2287 ?x4226) 0.0) (<= (+ ?x437 (* 2.0 S_1) ?x1470) 0.0) (<= (+ (* (/ 1.0 4.0) S_4) ?x423 (* (/ 3.0 4.0) S_0)) 0.0) (<= (+ (* (/ 3.0 5.0) S_5) (* (- 3.0) S_2) (* (/ 12.0 5.0) S_0)) 0.0) (or $x1477 (<= (+ (* (/ 3.0 2.0) L_0) ?x2304 ?x2306 ?x2860 ?x417) 0.0)) (or $x1903 $x72078) $x92868 (or $x1477 (<= (+ (* (/ 2.0 3.0) L_0) ?x4438 ?x4328 ?x3185 ?x417) 0.0)) (<= (+ (* (- (/ 3.0 2.0)) S_3) (* (/ 3.0 2.0) S_0)) (- 15.0)) (<= (+ (* (/ 3.0 5.0) S_5) ?x437 (* (/ 2.0 5.0) S_0)) 0.0) (<= (+ (* (- (/ 1.0 3.0)) S_4) (* (/ 1.0 3.0) S_0)) (- 5.0)) (or $x22226 $x72212 $x72418 $x72599 $x72823) (<= (+ ?x1993 ?x437 ?x4840) 0.0) $x86572 (or $x2898 (<= (- 5.0) (+ ?x1993 ?x2246 ?x2275 ?x1762 ?x2287))) $x82159 (or $x2898 (not $x72625)) (or $x1477 (<= (+ (* 4.0 L_0) ?x6789 ?x6469 ?x6798 ?x417) 0.0)) (or $x1903 $x72215) (or $x1903 $x70730) $x73410 (or $x1903 $x71966) (or $x1903 $x72147) $x140532 (or $x1477 (<= (+ ?x2896 ?x2317 ?x2319 (* 3.0 S_4) ?x430) 0.0)) (or $x22226 $x72212 $x72418 $x72834 $x72861) (or $x1477 (<= (+ ?x2889 ?x2248 ?x2292 ?x4226 ?x1470) 0.0)) (or $x69751 $x71948 $x71969 $x72963 $x74013) (<= (+ (* (- 4.0) S_2) (* 4.0 S_0)) (- 20.0)) (or $x22226 $x72212 $x72418 $x73095 $x74070) (or $x1477 (<= (+ ?x1399 (* (/ 5.0 2.0) L_0) ?x2304 ?x2306 ?x2860) 0.0)) (or $x1477 $x2898) (<= (+ (* (- (/ 1.0 4.0)) S_5) (* (/ 1.0 4.0) S_0)) (- 5.0)) (or $x1903 $x67926) (or $x22226 $x72215 $x72633 $x72696 $x72848) $x75701 (or $x69234 $x71966 $x73212 $x73568 $x74865) (or $x66788 $x69751 $x70730 $x73264 $x73880) (or $x22226 $x72215 $x72633 $x73095 $x74070) (or $x66788 $x69751 $x70730 $x73272 $x73880) (or $x66788 $x69751 $x70730 $x73185 $x73880) (or $x22226 $x69234 $x72147 $x72545 $x72844) (or $x69234 $x71966 $x74185 $x74318 $x75365) (or $x69234 $x72147 $x72963 $x74746 $x75589) (or $x31571 $x69234 $x72147 $x73442 $x74755) (or $x69234 $x72147 $x73212 $x73568 $x74865) (or $x69234 $x72147 $x74185 $x74318 $x75365) (or $x69234 $x69751 $x71966 $x73272 $x74029) (or $x69234 $x69751 $x71966 $x73160 $x74029) (or $x69234 $x69751 $x71966 $x73185 $x74029) (or $x69234 $x69751 $x71966 $x73264 $x74029) (or $x66788 $x69751 $x70730 $x73316 $x73880) (or $x66788 $x69751 $x70730 $x73160 $x73880) (or $x22226 $x67053 $x67926 $x72696 $x72848) (or $x22226 $x72212 $x72418 $x72696 $x72848) (or $x22226 $x69751 $x72212 $x72418 $x73160) (or $x22226 $x67053 $x67926 $x72545 $x72844) (or $x22226 $x67053 $x67926 $x72834 $x72861) (or $x69751 $x71948 $x71969 $x73316 $x74013) (or $x22226 $x69234 $x72599 $x72823 $x74594) (or $x22226 $x69751 $x72212 $x72418 $x73264) (or $x22226 $x69751 $x72212 $x72418 $x73316) (or $x69751 $x71948 $x71969 $x73160 $x74013) (or $x22226 $x69751 $x72215 $x72633 $x73160) (or $x22226 $x72215 $x72599 $x72633 $x72823) (or $x69751 $x71948 $x71969 $x73156 $x74013) (or $x69751 $x71948 $x71969 $x73264 $x74013) (or $x22226 $x72215 $x72545 $x72633 $x72844) (or $x22226 $x72212 $x72418 $x72545 $x72844) (or $x22226 $x69234 $x72147 $x72834 $x72861) (or $x22226 $x69234 $x72147 $x73095 $x74070) (or $x22226 $x69234 $x72199 $x72599 $x72823) (or $x22226 $x69234 $x72199 $x72834 $x72861) $x72714 (or $x22226 $x67053 $x67926 $x72841 $x72963) (or $x22226 $x72215 $x72633 $x72841 $x72963) (or $x22226 $x69234 $x72147 $x72841 $x72963) (or $x69234 $x72199 $x74185 $x74318 $x75365) (or $x69234 $x72199 $x73212 $x73568 $x74865) (or $x66788 $x69751 $x70730 $x72963 $x73880) (or $x22226 $x67053 $x67926 $x72599 $x72823) (or $x22226 $x69234 $x69751 $x71966 $x73185) (or $x31571 $x69234 $x71966 $x73442 $x74755) (or $x31571 $x69234 $x72199 $x73442 $x74755) (or $x31571 $x69234 $x73442 $x74594 $x74755) (or $x69234 $x69751 $x72199 $x73160 $x74029) (or $x69234 $x69751 $x72199 $x73272 $x74029) (or $x69234 $x72147 $x74023 $x74165 $x77967) (or $x69234 $x71966 $x74023 $x74165 $x77967) (or $x22226 $x69751 $x72212 $x72418 $x73185) (or $x22226 $x67053 $x67926 $x69751 $x73185) (or $x69234 $x69751 $x72199 $x73185 $x74029) (or $x69234 $x69751 $x72199 $x73264 $x74029) (or $x22226 $x69234 $x72199 $x72841 $x72963) (or $x69234 $x73212 $x73568 $x74594 $x74865) (or $x22226 $x67053 $x67926 $x69751 $x73264) (or $x22226 $x69751 $x72215 $x72633 $x73156) (or $x22226 $x69751 $x72215 $x72633 $x73316) (or $x22226 $x69751 $x72215 $x72633 $x73264) (or $x22226 $x69751 $x72215 $x72633 $x73185) (or $x69234 $x72963 $x74594 $x74746 $x75589) (or $x69234 $x74185 $x74318 $x74594 $x75365) (or $x22226 $x67053 $x67926 $x69751 $x73316) (or $x22226 $x72215 $x72633 $x72834 $x72861) (or $x22226 $x67053 $x67926 $x69751 $x73160) (or $x22226 $x69234 $x72147 $x72599 $x72823) (or $x22226 $x69751 $x72212 $x72418 $x73156) (or $x69234 $x69751 $x71966 $x73156 $x74029) (or $x22226 $x69234 $x69751 $x71966 $x73156) (or $x69234 $x69751 $x72199 $x72963 $x74029) (or $x69751 $x71948 $x71969 $x73272 $x74013) (or $x69234 $x69751 $x73272 $x74029 $x74594) (or $x22226 $x69234 $x71966 $x72599 $x72823) (or $x22226 $x69234 $x71966 $x72834 $x72861) (or $x22226 $x69234 $x71966 $x73095 $x74070) (or $x22226 $x69234 $x69751 $x71966 $x73160) (or $x22226 $x69234 $x69751 $x71966 $x73264) (or $x22226 $x69751 $x72215 $x72633 $x72963) (or $x22226 $x67053 $x67926 $x69751 $x72963) (or $x22226 $x69234 $x73095 $x74070 $x74594) (or $x22226 $x69234 $x69751 $x73156 $x74594) (or $x22226 $x69234 $x69751 $x73160 $x74594) (or $x22226 $x69234 $x69751 $x73185 $x74594) (or $x22226 $x69234 $x69751 $x72963 $x74594) (or $x69234 $x74023 $x74165 $x74594 $x77967) (or $x69234 $x69751 $x73156 $x74029 $x74594) (or $x22226 $x69234 $x72834 $x72861 $x74594) (or $x22226 $x69234 $x72545 $x72844 $x74594) (or $x22226 $x69234 $x69751 $x73264 $x74594) (or $x69234 $x69751 $x73160 $x74029 $x74594) (or $x69234 $x69751 $x73264 $x74029 $x74594) (or $x22226 $x69234 $x71966 $x72545 $x72844) (or $x69234 $x69751 $x73185 $x74029 $x74594) (or $x22226 $x69234 $x72841 $x72963 $x74594) (or $x22226 $x69234 $x72199 $x72545 $x72844) (or $x69234 $x69751 $x72963 $x74029 $x74594) (or $x22226 $x69234 $x69751 $x72199 $x72963) (or $x69234 $x72199 $x72963 $x74746 $x75589) (or $x22226 $x69234 $x69751 $x72199 $x73160) (or $x22226 $x69234 $x69751 $x72199 $x73185) (or $x22226 $x69234 $x69751 $x72199 $x73264) $x39 (<= (+ ?x1399 L_0 S_0) 0.0) (not (>= (+ S_5 L_0 ?x450) 0.0)) (<= (+ S_5 L_0 Q_5 (* (- 1.0) A_5)) 0.0) (<= (+ (* (- (/ 1.0 2.0)) S_5) (* (/ 1.0 2.0) S_2)) (- 5.0)) (<= (+ (* (- 2.0) S_5) ?x1688 ?x423) 0.0) (<= (+ ?x444 S_3) (- 5.0)) (<= (+ ?x2893 ?x2918) (- 5.0)) (<= (+ ?x437 S_2) (- 5.0)) (<= (+ (* (/ 1.0 3.0) S_4) ?x430 (* (/ 2.0 3.0) S_1)) 0.0) (<= (+ ?x430 S_1) (- 5.0)) (<= (+ ?x2287 ?x4840) (- 5.0)))))))))))))))))))))))))))))))))))))))))))))))))))))))))))))))))))))))))))))))))))))))))))))))))))))))))))))))))))))))))))))))))))))))))))))))))))))))))))))))))))))))))))
(check-sat)
