qe/outputs/qe/cbrdelay_obs_newl/T=6,eliminate=[I_0,I_1,I_2,I_3,I_4,I_5,L_1,L_2,L_3,L_4,L_5,C,B,lhs=Q_5].smt2.z3
[And(A_0 + -1*L_0 <= S_5,
     A_5 >= A_4,
     A_4 >= A_3,
     A_3 >= A_2,
     A_2 >= A_1,
     S_4 >= S_3,
     S_3 >= S_2,
     S_2 >= S_1,
     S_1 >= S_0,
     S_5 >= S_4,
     -1*S_5 + -1*A_0 + L_0 + 2*S_2 <= 0,
     -3*S_5 + 4*S_3 + -1*S_1 <= 0,
     -(3/2)*S_5 + (5/2)*S_2 + -1*S_0 <= 0,
     -3*S_5 + -1*A_0 + L_0 + 4*S_3 <= 0,
     -4*S_5 + 5*S_3 + -1*S_0 <= 0,
     -(2/3)*S_5 + (5/3)*S_1 + -1*S_0 <= 0,
     -(1/3)*S_5 + -1*A_0 + L_0 + (4/3)*S_1 <= 0,
     Or((1/5)*L_0 + (1/5)*Q_5 + -(1/5)*A_5 + (1/5)*S_0 <= -5,
        Q_5 <= 0),
     -3*S_4 + 4*S_2 + -1*S_0 <= 0,
     -1*A_0 + L_0 + -2*S_4 + 3*S_2 <= 0,
     -2*S_4 + 3*S_2 + -1*S_1 <= 0,
     Or(Q_5 <= 0,
        (1/2)*L_0 + (1/2)*Q_5 + -(1/2)*A_5 + (1/2)*S_3 <= -5),
     (1/3)*S_5 + -1*S_4 + (2/3)*S_2 <= 0,
     Or(Q_5 <= 0,
        -1*A_0 +
        (5/3)*L_0 +
        (2/3)*Q_5 +
        -(2/3)*A_5 +
        (5/3)*S_2 <=
        0),
     -1*A_0 + L_0 + -1*S_3 + 2*S_1 <= 0,
     S_5 + -4*S_3 + 3*S_1 <= 0,
     Or(Q_5 <= 0, L_0 + Q_5 + -1*A_5 + S_4 <= -5),
     Or(Q_5 <= 0,
        -1*A_0 + 5*L_0 + 4*Q_5 + -4*A_5 + 5*S_4 <= 0),
     Or(Q_5 <= 0,
        5*L_0 + 5*Q_5 + -5*A_5 + 6*S_4 + -1*S_0 <= 0),
     Or(Q_5 <= 0,
        3*L_0 + 3*Q_5 + -3*A_5 + 4*S_4 + -1*S_2 <= 0),
     Or(Q_5 == 0, Not(Q_5 <= 0)),
     (1/3)*S_3 + -1*S_2 + (2/3)*S_0 <= 0,
     -1*S_5 + 2*S_2 + -1*S_1 <= 0,
     (1/2)*S_4 + -1*S_3 + (1/2)*S_0 <= 0,
     (2/5)*S_5 + -1*S_3 + (3/5)*S_0 <= 0,
     -2*S_3 + 3*S_1 + -1*S_0 <= 0,
     -1*A_0 + L_0 + -(1/2)*S_4 + (3/2)*S_1 <= 0,
     -1*S_4 + 2*S_1 + -1*S_0 <= 0,
     (1/4)*S_4 + -1*S_2 + (3/4)*S_0 <= 0,
     (3/5)*S_5 + -3*S_2 + (12/5)*S_0 <= 0,
     Or(Q_5 <= 0,
        (3/2)*L_0 +
        (3/2)*Q_5 +
        -(3/2)*A_5 +
        (5/2)*S_3 +
        -1*S_1 <=
        0),
     Or(Not(Q_5 <= 0),
        Not(0 <=
            4*S_5 +
            -4*Q_5 +
            -4*A_1 +
            4*A_5 +
            -20*S_2 +
            16*S_0)),
     Or(Q_5 <= 0,
        (1/3)*L_0 + (1/3)*Q_5 + -(1/3)*A_5 + (1/3)*S_2 <= -5),
     Or(Q_5 <= 0,
        (2/3)*L_0 +
        (2/3)*Q_5 +
        -(2/3)*A_5 +
        (5/3)*S_2 +
        -1*S_1 <=
        0),
     -(3/2)*S_3 + (3/2)*S_0 <= -15,
     (3/5)*S_5 + -1*S_4 + (2/5)*S_0 <= 0,
     -(1/3)*S_4 + (1/3)*S_0 <= -5,
     Or(Not(-1*S_5 + Q_5 + -1*A_5 + A_3 + S_4 <= 0),
        Not(0 <=
            4*S_5 +
            -4*Q_5 +
            -4*A_1 +
            4*A_5 +
            -12*S_4 +
            8*S_2),
        Not(0 <=
            3*S_5 + -3*Q_5 + -3*A_2 + 3*A_5 + -6*S_4 + 3*S_2),
        Not(0 <=
            3*S_5 +
            -1*A_0 +
            L_0 +
            -3*Q_5 +
            -3*A_4 +
            3*A_5 +
            -2*S_4),
        Not(0 <=
            (3/2)*S_5 +
            -1*A_0 +
            L_0 +
            -(3/2)*Q_5 +
            -(1/2)*S_4)),
     (1/2)*S_5 + -1*S_4 + (1/2)*S_1 <= 0,
     Or(Q_5 <= 0, L_0 + Q_5 + -1*A_5 + 2*S_2 + -1*S_0 <= 0),
     Or(2*L_0 + 2*Q_5 + -2*A_5 + 3*S_3 + -1*S_0 <= 0,
        -5 <=
        (1/2)*S_5 +
        -(1/2)*Q_5 +
        -(1/2)*A_4 +
        (1/2)*A_5 +
        -(1/2)*S_4),
     Or(2*L_0 + 2*Q_5 + -2*A_5 + 3*S_3 + -1*S_0 <= 0,
        0 <=
        (1/2)*S_5 +
        -(3/2)*Q_5 +
        -(3/2)*A_4 +
        (3/2)*A_5 +
        -(1/2)*S_4),
     Or(2*L_0 + 2*Q_5 + -2*A_5 + 3*S_3 + -1*S_0 <= 0,
        Not(0 <= (4/5)*S_5 + L_0 + -1*A_4 + (1/5)*S_0 + Q_5)),
     Or(Q_5 <= 0,
        4*L_0 + 4*Q_5 + -4*A_5 + 5*S_4 + -1*S_1 <= 0),
     Or(Not(Q_5 <= 0),
        Not(0 <=
            4*S_5 +
            -4*Q_5 +
            -4*A_1 +
            4*A_5 +
            -(20/3)*S_4 +
            (8/3)*S_0)),
     Or(Not(Q_5 <= 0),
        Not(0 <=
            S_5 + -1*Q_5 + -1*A_1 + A_5 + -4*S_3 + 3*S_1)),
     Or(Q_5 <= 0,
        (1/4)*L_0 + (1/4)*Q_5 + -(1/4)*A_5 + (1/4)*S_1 <= -5),
     Or(Not(Q_5 <= 0),
        Not(0 <= -2*S_5 + -4*Q_5 + -4*A_1 + 4*A_5 + 2*S_2)),
     Or(Not(Q_5 <= 0),
        Not(0 <= -2*S_5 + -2*Q_5 + -2*A_1 + 2*A_5 + 2*S_3)),
     Or(Q_5 <= 0,
        -1*A_0 +
        (5/4)*L_0 +
        (1/4)*Q_5 +
        -(1/4)*A_5 +
        (5/4)*S_1 <=
        0),
     Or(Q_5 <= 0,
        2*L_0 + 2*Q_5 + -2*A_5 + 3*S_4 + -1*S_3 <= 0),
     Or(Not(-1*S_5 + Q_5 + -1*A_5 + A_3 + S_4 <= 0),
        Not(0 <=
            4*S_5 +
            -4*Q_5 +
            -4*A_1 +
            4*A_5 +
            -12*S_4 +
            8*S_2),
        Not(0 <=
            3*S_5 + -3*Q_5 + -3*A_2 + 3*A_5 + -6*S_4 + 3*S_2),
        Not(0 <= 2*S_5 + -2*Q_5 + -1*S_4 + -1*S_0),
        Not(0 <=
            4*S_5 +
            -4*Q_5 +
            -4*A_4 +
            4*A_5 +
            -3*S_4 +
            -1*S_0)),
     Or(Q_5 <= 0,
        (1/2)*L_0 +
        (1/2)*Q_5 +
        -(1/2)*A_5 +
        (3/2)*S_1 +
        -1*S_0 <=
        0),
     Or(Not(0 <= S_5 + -1*Q_5 + -1*A_4 + A_5 + -1*S_3),
        Not(0 <=
            3*S_5 + -3*Q_5 + -3*A_2 + 3*A_5 + -6*S_3 + 3*S_0),
        Not(0 <=
            4*S_5 +
            -4*Q_5 +
            -4*A_1 +
            4*A_5 +
            -10*S_3 +
            6*S_0),
        Not(0 <= S_5 + -1*Q_5 + -1*S_2),
        Not(0 <=
            2*S_5 + -2*Q_5 + 2*A_5 + -2*A_3 + -3*S_3 + S_0)),
     -4*S_2 + 4*S_0 <= -20,
     Or(Not(-1*S_5 + Q_5 + -1*A_5 + A_3 + S_4 <= 0),
        Not(0 <=
            4*S_5 +
            -4*Q_5 +
            -4*A_1 +
            4*A_5 +
            -12*S_4 +
            8*S_2),
        Not(0 <=
            3*S_5 + -3*Q_5 + -3*A_2 + 3*A_5 + -6*S_4 + 3*S_2),
        Not(0 <=
            (3/2)*S_5 + -(3/2)*Q_5 + -(1/2)*S_4 + -1*S_1),
        Not(0 <=
...